5 5
1 47 0 82 2 82 3 3 4 1
4 33 3 71 2 74 1 59 0 72
3 32 1 87 4 17 0 78 2 17
4 89 1 21 3 55 2 6 0 84
3 49 1 84 4 26 0 32 2 72
-1
0 1 4 5
0 2 5
0 2 3 5
0 1 2 5
0 2 3 5
-2
62 288 300
150 491
128 136 248
99 168 277
140 213 307

417 9
1 13 19 23 9
0 11 16 21 8
7 18 14 2 24
10 6 20 17 3
5 15 12 22 4
